GLPSOL: GLPK LP/MIP Solver, v4.55
Parameter(s) specified in the command line:
 -m tmp.mod
Reading model section from tmp.mod...
Reading data section from tmp.mod...
11873 lines were read
Generating obj...
Generating kirhoff...
Generating init_charge...
Generating batt_size...
Model has been successfully generated
GLPK Simplex Optimizer, v4.55
9806 rows, 21725 columns, 44810 non-zeros
Preprocessing...
9218 rows, 21545 columns, 44500 non-zeros
Scaling...
 A: min|aij| =  1.000e+00  max|aij| =  1.000e+00  ratio =  1.000e+00
Problem data seem to be well scaled
Constructing initial basis...
Size of triangular part is 7509
      0: obj =   0.000000000e+00  infeas =  4.251e+03 (1709)
    500: obj =   0.000000000e+00  infeas =  4.062e+03 (1424)
   1000: obj =   9.000000000e+00  infeas =  2.603e+03 (1125)
   1500: obj =   3.600000000e+01  infeas =  2.074e+03 (992)
   2000: obj =   7.600000000e+01  infeas =  1.832e+03 (824)
   2500: obj =   1.250000000e+02  infeas =  1.407e+03 (705)
   3000: obj =   2.780000000e+02  infeas =  6.820e+02 (599)
   3500: obj =   5.400000000e+02  infeas =  2.860e+02 (562)
*  3826: obj =   6.420000000e+02  infeas =  0.000e+00 (478)
*  4000: obj =   5.170000000e+02  infeas =  0.000e+00 (473)
*  4500: obj =   3.140000000e+02  infeas =  0.000e+00 (426)
*  5000: obj =   1.750000000e+02  infeas =  0.000e+00 (401)
*  5500: obj =   7.900000000e+01  infeas =  0.000e+00 (382)
*  5687: obj =   4.600000000e+01  infeas =  0.000e+00 (366)
OPTIMAL LP SOLUTION FOUND
Time used:   4.5 secs
Memory used: 40.4 Mb (42359837 bytes)
#OUTPUT:
46
-9 -4 0 0 -6 -2 0 1 0 -2 0 1 0 0 -3 0 0 0 0 -1 0 0 -5 1 -1 0 0 -2 -2 0 0 0 1 0 0 0 0 -4 0 0 -3 -2 0 0 0 0 -1 0 0 0 0 0 0 0 0 -2 0 0 0 0 0 0 0 0 0 0 0 0 0 0 0 0 0 -1 0 0 0 0 0 -1 0 0 0 0 0 0 0 0 0 0 0 0 0 0 0 0 0 0 0 0 0 0 0 0 0 -2 0 0 0 0 0 0 0 0 0 0 0 0 0 0 0 0 0 0 -2 0 0 0 1 0 0 0 0 0 0 0 0 0 0 0 0 0 0 0 0 0 0 0 0 0 0 0 0 0 0 0 0 0 0 0 0 0 0 0 0 0 0 0 0 0 0 0 0 0 0 0 0 0 0 0 0 0 0 0 0 0 0 0 0 0 0 0 0 0 0 0 0 0 0 0 0 0 0 0 0 0 0 0 0 0 0 0 0 0 0 0 0 0 -4 0 0 0 0 0 0 0 -1 0 0 0 0 0 1 0 0 0 0 0 0 0 0 0 0 0 0 0 0 0 0 0 0 0 0 0 4 0 0 0 0 0 0 0 0 0 0 0 0 0 0 0 0 0 0 0 0 0 0 0 0 0 0 0 0 0 0 0 0 0 0 0 0 0 0 0 0 0 0 0 0 0 0 0 0 0 0 0 0 0 0 0 0 0 0 0 0 0 0 0 0 0 0 0 0 0 0 0 0 -6 0 0 0 0 0 0 0 0 0 0 0 0 0 0 0 0 0 0 0 0 0 0 0 0 0 0 -2 0 0 0 0 0 0 0 0 0 0 0 0 0 0 0 -1 0 0 0 0 0 0 0 0 0 0 0 0 0 1 0 0 0 2 0 0 0 0 0 0 0 0 0 0 0 -2 0 0 0 0 0 0 0 0 0 0 0 0 0 0 0 0 0 0 0 0 0 0 0 0 0 0 0 0 0 0 0 -1 0 0 -4 0 0 0 0 0 0 0 2 0 0 0 0 0 0 0 0 0 0 0 0 0 0 0 0 0 0 0 0 0 0 0 0 0 0 0 0 0 0 0 -2 0 0 0 -4 0 0 0 0 0 0 0 0 0 0 0 0 0 -1 0 0 0 0 0 0 0 0 0 0 0 0 0 0 0 0 0 0 0 0 0 0 0 0 0 0 0 0 0 0 0 0 0 0 0 0 0 0 0 0 0 0 0 0 0 0 0 0 0 1 -2 0 0 0 0 0 0 0 0 0 -4 4 0 0 0 2 0 0 0 0 0 0 0 0 0 0 0 0 0 -4 0 0 3 0 0 0 0 0 0 0 0 0 0 0 0 0 0 0 0 0 0 0 0 6 0 -2 2 0 0 0 0 0 0 0 0 0 0 0 0 0 0 1 0 0 0 0 0 -1 0 -2 0 0 -2 2 0 0 0 0 0 0 0 0 0 0 0 0 0 0 1 4 0 0 0 -2 0 0 0 0 0 0 -4 4 0 2 0 4 0 0 0 1 0 0 0 0 0 0 0 0 0 0 0 0 0 0 0 0 0 0 0 0 0 0 0 0 0 0 0 0 0 
-10 -22 0 0 0 -10 0 0 0 -4 0 1 0 0 0 0 -8 0 0 0 0 -4 -3 -8 0 0 0 -4 0 0 -9 0 0 0 0 0 0 -4 0 0 0 0 0 0 0 0 0 0 0 0 0 9 0 0 0 0 0 0 5 0 0 0 0 0 0 0 0 0 0 0 0 0 0 0 0 0 0 0 0 0 0 -9 0 0 0 0 0 0 0 0 0 0 0 -20 0 0 0 0 0 0 0 0 0 0 0 0 0 0 0 0 0 0 0 0 0 0 0 0 0 0 0 0 0 0 0 0 0 0 0 0 0 0 0 0 0 0 0 0 0 0 0 0 0 0 0 0 0 0 0 0 0 0 0 0 0 -11 0 0 0 0 0 0 0 0 0 0 0 0 0 0 0 0 4 0 0 0 0 0 0 0 0 0 0 0 0 0 0 0 0 0 0 0 0 -12 0 0 0 0 0 0 0 0 0 0 0 0 0 0 0 0 4 0 0 0 0 0 0 0 0 0 0 0 0 0 0 0 0 0 0 0 0 0 0 0 0 0 0 0 0 0 0 0 0 0 0 0 0 0 0 0 0 0 0 0 0 0 0 0 0 4 0 0 0 0 0 0 0 3 0 0 0 0 0 -6 0 0 0 0 0 0 0 0 0 0 0 0 0 0 0 0 0 0 0 0 0 0 0 0 0 0 0 0 0 0 0 0 0 0 0 0 0 0 0 0 0 0 0 0 0 0 -4 0 0 -1 0 0 0 -3 0 0 0 0 0 0 0 0 0 0 0 0 -4 0 0 0 0 0 0 0 0 0 0 0 0 0 0 0 0 0 0 0 0 0 0 0 0 -4 0 0 0 0 0 0 0 0 0 0 0 0 0 0 0 0 0 0 0 0 0 0 0 0 0 11 0 11 0 0 0 0 0 0 0 0 0 0 0 0 0 0 0 0 0 4 0 0 0 0 0 0 0 0 0 0 0 0 0 0 0 0 0 0 0 0 0 0 0 0 0 0 0 0 0 0 0 0 0 0 0 0 0 0 0 0 0 0 0 0 0 0 0 0 0 0 0 4 0 0 0 0 0 0 0 0 0 0 0 0 0 0 0 0 0 0 0 0 0 0 0 0 0 0 0 0 0 0 0 0 0 6 0 0 0 -1 0 0 0 0 0 0 0 0 0 0 0 0 0 0 0 0 0 0 0 0 0 0 0 0 0 0 0 0 0 0 0 0 0 0 0 0 0 0 0 0 0 5 0 0 5 0 0 0 0 0 0 0 0 0 0 0 0 6 0 0 -4 0 0 0 0 0 0 0 0 0 0 0 0 0 4 0 0 0 0 9 -9 4 0 0 0 0 0 0 0 0 0 0 0 0 4 3 0 0 0 0 0 0 0 0 0 0 0 0 0 0 0 0 0 0 0 0 0 0 0 0 0 0 -11 0 0 0 0 0 4 -4 0 0 0 0 -4 0 0 0 0 0 0 0 0 0 0 0 0 0 0 0 0 -4 -4 4 0 0 0 0 0 0 0 0 -6 0 0 1 0 0 0 0 0 0 0 0 0 0 0 0 0 0 0 0 0 0 0 0 0 0 0 0 0 
-2 -9 -8 -38 -2 0 0 0 -22 -7 -3 0 -11 -6 0 4 -9 0 0 0 0 -3 0 -9 0 -4 6 -3 0 0 0 0 0 0 0 -3 0 -3 0 0 0 0 0 9 0 1 0 0 -22 1 0 0 0 0 0 0 0 0 -1 0 0 1 0 0 0 -3 0 0 0 0 0 0 -5 0 0 0 3 0 0 0 0 0 3 0 0 0 0 0 0 0 0 4 0 0 0 0 -2 0 0 0 0 0 0 0 0 0 0 8 0 0 0 0 0 0 0 -4 0 4 0 0 0 0 0 1 0 0 0 0 0 0 -2 0 0 0 0 -2 0 -1 -2 0 0 0 0 0 0 0 0 0 -9 0 0 0 0 0 0 0 0 0 -1 0 -1 3 0 0 0 0 0 0 0 0 -4 -4 0 0 0 0 -5 0 8 0 0 0 0 0 0 0 0 0 0 0 0 -2 -4 4 0 0 0 0 2 0 0 0 0 1 0 0 0 -1 0 0 0 0 8 0 9 0 0 0 0 0 0 0 0 1 1 0 0 0 0 0 0 0 0 0 0 0 0 0 0 0 0 0 -6 0 0 0 0 0 0 0 0 0 0 -1 0 0 0 0 0 4 0 0 0 -6 0 0 1 0 0 0 0 0 0 0 0 -4 0 0 -6 0 0 0 0 0 0 0 0 0 0 0 0 1 0 0 0 0 0 0 0 0 0 0 0 0 0 0 0 0 0 0 0 0 0 0 0 0 0 0 0 0 0 0 0 0 0 0 0 0 0 0 0 0 0 0 0 0 2 0 0 0 0 0 0 0 0 0 0 0 0 0 0 0 0 0 0 -4 0 0 0 0 0 0 0 -4 0 0 0 0 0 0 0 0 0 0 0 0 0 0 0 0 0 0 0 0 0 0 0 0 0 0 0 0 0 0 0 0 0 0 0 0 0 0 0 0 0 0 0 0 0 0 0 0 0 0 0 0 0 0 0 0 0 0 0 0 3 0 0 0 0 0 0 0 0 0 0 0 0 0 0 2 0 0 0 0 0 0 0 0 0 0 0 0 0 0 0 0 0 0 0 0 0 0 0 0 0 -4 0 0 0 0 0 0 0 0 0 0 22 0 0 0 0 0 0 0 0 1 0 0 0 0 4 0 5 0 0 0 0 0 0 0 0 0 -56 0 0 0 0 0 -5 0 0 0 0 0 0 0 0 0 -2 0 0 0 0 0 0 0 0 0 0 0 0 -2 0 0 0 0 0 0 0 0 0 0 0 -1 0 0 0 0 0 0 0 9 0 -3 0 0 0 0 0 0 -4 4 -4 -2 0 -1 1 0 0 0 0 0 0 0 0 0 -36 -5 0 0 0 0 0 4 0 8 -2 0 0 0 0 0 0 -4 9 0 0 0 0 0 0 0 0 0 0 0 4 0 0 0 0 4 0 0 0 0 0 0 0 0 0 0 0 0 0 0 0 0 0 0 0 0 0 0 0 0 0 0 0 -3 0 0 0 0 0 0 0 0 0 0 0 -4 0 0 -4 8 0 0 -22 0 0 -1 -4 0 0 0 0 0 0 0 0 5 0 0 0 0 2 0 0 0 0 0 0 0 0 0 0 0 0 0 0 0 0 
-46 -80 0 -31 0 -65 0 0 -22 -28 0 0 -6 -6 0 0 -9 0 0 0 0 0 -12 -9 0 -4 0 -24 0 0 1 0 1 0 0 0 0 -4 0 0 0 0 0 -13 0 0 0 0 -22 0 0 0 0 0 0 0 0 0 0 0 0 0 0 0 0 0 0 0 8 0 0 -42 -3 -1 0 0 0 0 0 0 0 1 0 0 0 0 0 0 0 0 0 0 0 18 0 0 -6 0 0 0 0 0 0 0 0 0 0 8 0 0 0 0 0 0 0 0 0 1 0 0 0 0 0 -21 0 0 0 -9 0 0 -6 0 0 5 0 0 0 0 0 0 0 0 -79 19 0 0 0 0 -19 0 0 0 0 0 0 -56 0 0 0 -6 0 0 0 0 0 0 0 0 0 0 -4 0 0 0 0 0 -3 0 8 0 0 20 0 0 0 0 0 0 0 0 0 0 0 0 0 0 0 0 0 0 0 0 0 0 5 0 0 0 0 0 5 0 8 0 5 0 0 0 0 0 0 0 0 42 42 0 -1 0 0 0 0 0 0 0 0 0 0 0 20 0 0 0 3 0 0 0 0 0 0 0 0 -20 0 0 0 0 0 0 0 0 0 -20 0 0 0 0 42 4 0 0 0 0 0 0 0 0 0 0 3 0 0 -1 0 0 0 0 0 0 0 0 0 42 0 0 0 0 42 0 0 0 0 0 22 0 0 0 0 0 0 0 0 0 0 0 0 0 0 0 0 0 -6 0 0 0 0 0 0 -13 0 0 0 0 0 0 0 0 0 0 0 22 0 0 0 0 0 0 0 0 0 0 0 0 0 0 0 -4 0 0 0 0 0 0 0 3 0 -6 0 0 0 0 0 0 0 0 8 0 0 0 0 0 0 0 0 0 1 0 0 0 -20 0 0 56 0 56 0 0 0 0 0 0 0 0 0 0 0 0 0 0 0 0 0 6 0 0 0 0 0 0 0 0 0 0 0 0 3 0 0 0 0 0 0 0 0 0 0 0 0 0 0 0 0 0 0 0 0 0 0 0 0 0 0 0 0 0 0 0 0 0 0 0 0 0 0 4 0 -4 0 0 0 0 0 0 0 0 0 0 22 0 0 0 0 0 0 0 0 0 0 0 0 0 0 0 5 0 0 0 0 0 0 0 0 0 0 0 0 0 0 0 -5 0 0 0 0 0 0 0 0 0 0 0 0 0 5 0 0 0 0 0 0 0 0 0 0 0 0 0 0 0 0 0 0 0 0 0 0 0 0 0 0 0 0 19 6 0 0 0 5 0 0 0 3 0 0 0 0 0 0 1 0 0 0 0 20 0 0 20 7 0 0 0 0 -5 5 0 0 -3 0 0 0 -42 0 0 0 0 5 0 6 13 0 -1 -21 0 0 0 0 0 4 0 0 0 0 -3 0 0 0 0 -8 0 0 0 0 -1 0 20 -56 0 0 0 0 0 0 0 0 0 0 0 -6 0 0 -3 0 0 0 0 0 0 0 0 0 0 0 0 0 -4 -4 8 0 0 -22 0 0 0 0 0 0 0 0 0 0 0 0 5 0 0 0 -5 0 0 0 0 0 0 0 0 0 0 0 0 0 0 0 0 0 
-22 -25 -4 0 -3 -16 0 0 0 -6 0 -1 0 0 -3 4 -9 0 0 0 0 -28 -2 -9 -1 -2 0 -4 -8 0 0 0 -1 0 0 -54 -1 -4 -12 0 -1 6 0 0 0 0 -7 0 0 0 0 -8 0 0 0 5 0 0 20 -5 -5 0 0 0 -2 3 0 0 0 0 0 0 0 0 4 0 0 0 0 0 0 0 0 0 -8 0 0 0 0 3 0 0 0 0 0 0 0 0 0 -54 0 0 0 0 3 0 0 0 0 0 0 0 0 0 0 -4 0 4 -4 -8 0 0 0 0 5 -6 0 0 0 0 0 0 0 0 0 0 0 0 0 0 0 0 0 0 0 0 0 0 0 0 0 0 0 0 0 0 0 0 0 0 0 0 0 0 0 0 3 0 0 0 0 0 0 0 0 0 0 0 0 3 0 0 0 0 0 0 0 0 0 0 0 0 0 -3 0 0 0 0 0 0 0 0 0 0 10 0 0 0 0 0 0 0 0 0 0 0 0 0 0 0 0 0 0 0 0 0 -4 0 0 0 0 0 0 0 0 0 0 0 0 0 0 0 0 -2 0 0 0 0 0 0 -5 5 0 0 0 0 0 0 0 -3 0 0 0 0 0 0 0 0 0 0 0 0 0 -19 12 -4 0 0 0 0 0 0 0 0 0 0 0 0 0 -1 -1 0 -3 0 0 0 0 0 -3 0 0 0 0 0 0 0 0 0 0 0 0 0 0 0 0 0 0 -5 0 0 -4 0 0 0 0 0 0 0 -2 0 0 0 0 0 0 0 0 0 0 0 26 0 0 0 0 0 0 0 0 0 0 0 0 0 0 -2 0 0 0 0 0 0 0 4 0 0 0 0 0 0 0 0 0 0 0 0 0 0 0 0 5 0 0 0 0 0 0 0 0 0 0 0 0 0 0 0 0 0 0 0 0 0 0 -19 0 0 0 0 0 0 0 0 0 0 0 0 0 0 0 0 0 0 0 0 0 0 0 0 0 -3 0 0 -1 0 0 0 0 0 0 0 0 0 0 -5 0 0 0 0 0 0 0 0 0 0 0 0 0 0 0 0 0 0 0 0 0 0 0 0 0 0 0 0 0 0 0 0 0 0 0 0 0 0 0 0 0 0 0 0 0 0 0 0 0 6 0 0 0 0 0 0 0 0 0 0 0 0 6 0 0 0 0 0 0 0 0 0 0 0 0 0 0 0 10 0 0 0 0 0 0 0 0 0 0 0 0 0 0 0 0 0 0 0 0 23 0 0 8 0 6 0 0 0 0 0 0 0 0 -3 0 0 0 0 3 0 0 0 0 7 0 0 1 0 -5 0 0 0 2 3 0 0 0 -12 0 -3 0 0 0 -5 0 0 0 0 0 0 0 5 4 0 0 0 0 0 0 0 0 0 0 2 0 0 0 -4 0 0 0 0 0 0 0 -5 0 0 0 0 0 0 0 0 0 0 -7 26 0 0 0 0 0 0 0 0 3 0 1 0 0 0 0 5 0 0 0 0 0 0 -4 4 0 0 0 0 0 0 0 0 0 0 0 0 -6 4 -4 0 0 0 0 -10 0 0 0 0 0 0 0 0 0 0 0 0 0 0 0 0 0 
-7 -81 -3 -4 -6 -11 0 8 -3 -6 -2 -1 -1 0 -3 -12 -4 0 0 -4 0 6 -1 0 0 0 5 -6 0 0 0 0 -1 0 0 2 0 -4 -5 4 -3 1 0 0 0 7 -4 0 -3 1 -2 1 0 0 0 0 0 0 1 0 0 -1 0 0 0 2 0 0 2 6 0 0 0 2 0 0 0 0 0 -1 0 0 0 0 0 -66 0 0 6 0 0 -12 0 0 0 0 0 0 0 0 0 0 0 0 0 0 0 0 0 0 0 0 4 0 0 0 0 3 0 0 0 0 0 0 0 0 0 -2 8 0 0 0 0 -5 0 -2 0 -7 -2 0 0 -1 0 0 0 0 0 0 0 0 0 0 0 0 0 0 0 0 -7 0 -1 0 0 0 0 0 0 0 0 0 0 0 5 0 0 0 0 0 0 0 0 4 0 0 0 0 -3 0 0 0 0 -7 -4 0 0 6 0 0 2 0 0 0 0 1 0 0 0 1 0 0 0 3 0 0 0 0 0 0 3 -66 0 0 0 0 0 0 0 0 0 0 0 0 0 0 0 0 0 0 0 0 0 0 -3 0 0 0 0 0 0 0 0 0 0 0 0 0 0 0 0 0 -1 0 0 0 0 0 0 0 0 0 0 0 0 -8 1 0 0 -3 -3 0 0 0 0 -2 0 0 0 0 0 0 0 0 0 0 0 0 0 0 0 0 0 0 0 -3 0 0 0 0 0 0 -2 4 0 0 0 0 0 0 0 0 0 0 0 -1 0 -1 0 0 -2 8 0 0 0 0 0 0 0 0 0 0 0 0 1 -2 0 0 0 0 -66 0 0 0 0 0 0 0 0 0 0 -2 0 0 0 0 0 0 0 -20 0 0 1 0 0 0 2 0 0 0 0 0 0 0 0 0 0 0 0 0 -2 0 0 0 0 0 0 0 0 0 0 0 0 0 0 0 0 8 0 0 0 0 0 0 0 0 0 0 0 0 0 0 0 0 0 0 0 0 0 0 0 0 0 0 0 0 0 0 0 0 8 0 0 0 0 0 -42 0 0 0 0 0 0 0 0 0 -2 0 0 0 0 0 0 0 0 1 0 0 8 0 0 0 0 0 0 0 0 0 3 0 0 0 0 0 0 0 0 0 0 0 0 0 0 0 0 0 0 0 0 8 0 0 0 -1 0 0 0 0 0 0 0 0 0 -62 0 0 0 0 0 0 0 0 0 0 0 0 0 0 0 0 0 0 0 0 -4 0 0 0 4 0 0 0 0 0 0 5 0 0 0 6 0 0 0 -2 0 0 0 0 -5 0 0 -11 4 4 0 -2 0 -1 -1 0 1 -3 0 0 4 0 0 0 3 0 0 0 0 1 -2 0 0 -8 0 0 0 0 3 0 0 0 0 0 0 0 0 2 -2 -1 0 0 66 20 0 0 2 0 0 0 0 20 0 -1 -2 0 0 0 0 0 0 2 0 0 -20 20 0 0 0 0 0 -7 -1 0 0 0 -8 0 0 0 0 0 0 0 0 0 0 0 2 0 0 -1 -3 3 -8 0 -3 0 0 0 0 0 -8 0 0 1 0 0 0 0 0 0 0 0 0 4 0 -4 0 0 0 0 0 0 0 0 0 0 0 0 0 
-9 -3 1 0 -5 0 0 0 0 0 0 1 0 0 -1 4 -3 0 -4 -3 0 -3 -1 0 0 0 6 0 -1 -1 0 0 -1 0 0 0 0 0 0 0 0 0 0 0 0 0 0 0 0 -1 0 -3 0 0 0 0 0 0 0 0 0 0 0 0 0 0 0 0 0 3 0 0 0 0 0 0 0 0 0 -5 0 0 0 0 0 0 0 0 1 0 0 4 0 0 0 0 0 0 0 0 0 0 -1 6 0 0 0 0 0 0 0 0 0 0 0 0 0 -2 0 0 0 0 0 0 0 0 0 0 0 0 0 0 0 0 0 0 0 4 0 0 0 0 0 0 0 0 -1 0 -2 0 0 0 0 0 0 0 0 0 4 0 1 0 0 0 0 0 0 0 -2 0 0 0 0 0 0 0 0 0 0 0 0 0 0 0 0 0 0 0 0 6 0 -4 -4 -4 0 1 0 0 0 0 0 0 0 -1 0 0 0 6 0 0 0 1 0 0 0 0 0 0 -4 0 -2 0 0 0 0 0 1 0 0 6 0 0 0 0 0 0 0 0 0 0 0 0 0 0 0 0 0 0 0 0 -5 2 0 0 5 0 0 0 0 -5 0 0 0 0 0 0 0 0 0 0 0 0 0 0 3 0 0 0 0 0 0 0 0 0 0 0 0 0 0 0 0 0 0 0 0 0 0 0 0 0 0 0 0 0 3 0 0 0 0 0 0 0 0 0 0 0 0 -5 0 0 0 0 0 0 0 0 0 0 0 0 0 0 0 0 0 0 0 0 0 0 -3 0 0 0 0 0 0 0 0 0 0 0 0 0 0 0 0 0 0 0 0 0 0 0 0 0 0 0 0 0 0 0 0 0 0 0 0 0 0 0 0 0 0 0 -1 0 0 -6 0 0 0 0 0 0 0 0 0 0 0 0 0 0 0 0 0 0 0 -5 0 0 0 0 0 0 0 0 0 0 0 0 0 0 0 0 0 0 0 0 0 0 0 0 0 0 0 0 0 0 0 0 0 0 0 0 0 0 0 0 0 0 0 0 0 0 0 0 0 0 0 0 0 0 0 0 0 0 0 0 0 0 0 0 0 0 0 0 0 0 0 -5 0 0 0 0 0 0 0 0 0 0 7 0 0 0 0 0 0 0 0 0 0 0 0 0 0 0 0 0 0 0 0 0 0 0 0 0 0 0 0 0 0 0 0 0 0 0 0 0 0 0 0 0 0 0 0 0 0 0 0 0 0 0 0 0 0 0 -3 3 0 0 0 2 0 0 0 0 0 0 0 0 4 4 4 0 0 1 -6 0 0 2 0 0 1 -5 0 0 -1 0 0 0 0 -3 0 0 0 0 0 0 0 0 0 0 0 0 0 -1 0 0 0 0 0 0 0 0 0 0 0 0 0 0 0 0 0 0 0 0 0 0 0 0 0 1 6 0 0 0 0 0 0 3 0 -3 3 0 0 0 0 0 0 0 0 0 0 0 0 0 0 0 0 0 0 -7 0 0 0 0 0 0 0 5 0 0 -7 0 0 0 0 0 0 0 0 0 0 0 0 0 0 0 0 0 0 0 0 0 0 0 0 0 0 0 0 0 0 
-22 0 0 0 -6 -14 -11 0 0 0 0 0 0 0 -3 0 3 0 0 -3 0 0 -3 6 0 0 6 0 0 0 0 0 -1 0 0 0 0 0 0 0 0 0 0 0 0 0 0 0 0 0 0 0 0 0 0 0 0 0 0 0 0 0 0 0 0 0 0 0 0 0 0 0 0 0 0 -11 0 0 0 -3 0 0 0 0 0 0 0 0 0 0 0 0 0 0 0 0 0 0 0 0 0 0 6 0 0 0 0 0 0 0 0 0 -4 0 0 0 0 0 0 0 0 0 0 0 0 0 0 0 0 0 0 0 0 0 0 0 0 0 0 0 0 0 0 0 0 0 6 0 0 0 0 0 0 0 0 0 0 0 0 0 0 0 11 0 0 0 0 0 0 0 0 0 0 0 0 0 0 0 0 0 0 -4 0 0 0 0 0 0 0 0 0 -7 -4 0 0 0 0 0 0 0 0 0 0 0 0 0 0 0 0 0 0 0 0 0 0 0 0 0 0 0 0 0 0 0 0 0 1 0 0 0 0 0 0 0 0 0 0 0 0 0 0 0 0 0 0 0 0 0 0 0 4 0 0 0 0 0 0 0 0 6 0 0 0 0 0 0 0 4 0 0 0 0 0 -1 0 0 0 0 0 0 0 0 0 0 0 0 0 0 0 0 0 0 0 0 0 0 0 0 0 0 0 0 0 0 0 0 0 0 0 0 0 0 0 0 0 0 0 4 0 0 0 0 0 0 0 0 0 -2 -2 0 0 0 0 0 0 0 0 0 0 0 0 0 0 0 0 0 0 0 0 0 0 0 0 0 0 0 0 0 0 0 0 0 0 0 0 0 0 0 0 0 0 0 0 0 0 0 0 0 0 0 0 0 0 0 -1 0 0 0 0 0 0 0 0 0 0 0 0 0 0 0 0 0 0 -6 0 0 0 0 0 0 0 0 0 0 0 0 0 0 0 0 0 0 0 0 0 0 0 0 0 0 0 0 0 0 0 0 0 0 0 0 0 0 0 0 0 0 0 0 0 0 0 0 0 0 0 0 0 0 0 0 0 0 0 4 0 0 0 0 0 0 0 0 0 0 0 0 0 0 0 0 0 0 0 0 0 0 0 0 0 0 0 0 0 0 0 0 0 -5 0 0 0 0 0 0 0 0 0 0 0 0 0 0 0 0 0 0 0 0 0 0 0 0 0 0 0 0 0 0 0 0 0 0 0 0 0 0 0 0 0 0 0 0 0 0 0 0 0 0 0 0 0 0 0 0 -11 0 0 0 0 -5 7 4 0 0 0 0 0 0 0 0 0 0 0 0 0 0 0 0 0 0 0 0 0 6 0 0 0 0 0 0 0 0 0 0 0 -4 0 2 0 0 0 0 0 0 0 0 0 0 0 0 0 0 0 0 0 0 0 0 0 0 0 1 0 0 0 0 0 0 0 0 6 0 0 0 0 0 0 0 0 0 0 0 0 0 0 0 0 0 0 0 0 0 0 -4 0 0 0 0 0 0 0 0 0 0 5 0 0 0 0 0 0 0 0 0 0 0 0 0 0 0 0 0 0 0 0 0 0 0 0 0 0 0 0 
-68 0 -12 -32 -6 -16 -2 -26 -16 -8 0 0 -16 -5 2 0 0 -2 0 0 0 0 -1 0 0 -4 -5 -4 1 -22 5 0 -1 0 0 0 0 -4 0 0 3 3 0 0 -1 0 0 0 -16 0 0 6 0 -8 -23 0 0 0 0 0 0 0 0 0 0 0 0 0 0 -6 0 0 0 0 0 0 0 -2 0 0 0 5 0 9 0 0 5 0 -5 0 0 0 0 0 0 0 0 0 0 0 0 0 0 0 0 0 0 0 0 -1 -1 0 0 0 0 -10 0 0 0 0 0 0 0 0 0 0 0 -15 -3 0 0 0 0 0 0 0 0 -5 0 0 -2 0 0 -45 0 0 0 0 -22 0 0 0 0 0 0 0 0 0 -5 0 0 0 16 0 0 -1 0 0 0 0 0 -5 0 0 0 2 0 0 0 0 0 0 0 0 2 0 0 0 0 0 0 -5 -1 0 0 -5 0 -5 0 0 -15 0 0 0 0 0 0 0 0 0 0 -7 0 2 0 0 0 0 32 0 -2 0 0 0 0 0 1 0 0 0 0 5 0 0 0 0 0 0 0 0 0 0 -12 0 0 0 15 0 0 0 0 3 5 0 21 0 0 0 0 0 0 0 0 0 2 0 0 0 -5 9 -5 0 0 -19 -6 -10 -15 -2 -4 0 0 0 0 0 0 0 0 0 0 0 0 0 0 0 -5 0 0 0 0 0 0 0 0 -2 3 0 5 0 0 0 0 0 0 0 0 0 0 0 0 0 0 0 0 0 0 5 0 0 0 0 0 0 0 0 0 0 0 0 0 0 0 0 0 0 0 0 0 0 0 0 0 0 0 0 0 -4 0 0 0 0 0 0 0 1 0 0 0 -1 0 0 0 2 0 0 0 0 0 0 0 0 0 0 0 0 -1 0 0 0 0 0 0 0 0 0 0 0 0 0 0 9 0 0 0 -11 0 0 0 -18 0 0 0 0 0 0 0 0 0 0 0 0 0 0 0 0 0 0 0 0 0 0 0 0 0 0 0 -3 0 0 0 0 0 0 8 0 0 0 0 0 0 0 0 0 -76 0 0 0 -2 0 -2 0 0 0 0 0 0 0 0 0 0 0 0 0 0 0 0 0 16 0 0 -21 0 0 0 0 0 0 0 0 0 0 0 0 -5 3 0 0 0 8 0 0 0 0 0 0 0 0 0 0 5 0 0 0 0 0 0 0 0 -23 0 0 0 0 0 0 0 0 0 0 0 0 0 0 0 0 0 0 0 0 0 0 0 0 0 0 0 0 6 -6 0 0 0 22 0 0 -17 1 0 0 0 0 -7 1 0 0 0 0 0 0 -28 0 0 0 0 -21 0 0 5 0 -2 5 5 6 0 18 15 -1 0 0 0 0 2 -5 0 -5 0 0 0 0 0 0 0 0 0 0 0 1 4 0 0 0 0 -1 0 1 0 0 0 0 0 0 0 1 0 0 0 0 -1 -8 0 3 8 0 3 -5 5 0 0 0 0 0 0 0 0 3 0 0 -8 0 0 0 0 0 2 0 -4 4 0 0 -16 21 0 0 0 -3 -8 0 0 0 0 0 0 -5 23 0 0 0 0 0 0 0 0 0 0 0 0 0 0 0 0 0 0 0 0 
-7 0 0 0 0 0 0 0 0 0 0 0 0 0 0 0 0 0 0 0 0 0 0 0 0 0 0 0 0 0 0 0 0 0 0 0 0 0 0 0 0 0 0 0 0 0 0 0 0 0 0 0 0 0 0 0 0 0 0 0 0 0 0 0 0 0 0 0 0 0 0 0 0 0 0 0 0 0 0 0 0 0 0 0 0 0 0 0 0 0 0 0 0 0 0 0 0 0 0 0 0 0 0 0 0 0 0 0 0 0 0 0 0 0 0 0 0 0 0 0 0 0 0 0 0 0 0 0 0 0 0 0 0 0 0 0 0 0 0 0 0 0 0 0 0 0 0 0 -4 0 0 0 0 0 0 0 0 0 0 0 0 0 0 0 0 0 0 0 0 0 0 0 0 0 0 0 0 0 0 0 0 0 0 0 0 0 0 0 0 0 0 0 0 0 0 0 0 0 0 0 0 0 0 0 0 0 0 0 0 0 0 0 0 0 0 0 0 0 0 0 0 0 0 0 0 0 0 0 0 0 0 0 0 0 0 0 0 0 0 0 0 0 0 0 0 0 0 0 0 0 0 0 0 0 0 0 0 0 0 0 0 0 0 0 0 0 0 0 0 0 0 0 0 -7 0 0 0 0 0 0 0 0 0 0 0 0 0 0 0 0 0 0 0 0 0 0 0 0 0 0 0 0 0 0 0 0 0 0 0 0 0 0 0 0 0 0 0 0 0 0 0 0 0 0 0 0 0 0 0 0 0 0 0 0 0 0 0 0 0 0 0 0 0 0 0 0 0 0 0 0 0 0 0 0 0 0 0 0 0 0 0 0 0 4 0 0 0 0 0 0 0 0 0 0 0 0 0 0 0 0 0 0 0 0 0 0 0 0 0 0 0 0 0 0 0 0 0 0 0 0 0 0 0 0 0 0 0 0 0 0 0 0 0 0 0 0 0 0 0 0 0 0 0 0 0 0 0 0 0 0 0 0 0 0 0 0 0 0 0 0 0 0 0 0 0 0 0 0 0 0 0 0 0 0 0 0 0 0 0 0 0 0 0 0 0 0 0 0 0 0 0 0 0 0 0 0 0 0 0 0 0 0 0 0 0 0 0 0 0 0 0 0 0 0 0 0 0 7 0 0 0 0 0 0 0 0 0 0 0 0 0 0 0 0 0 0 0 0 0 0 0 0 0 0 0 0 0 0 0 0 0 0 0 0 0 0 0 0 0 0 0 0 0 0 0 0 0 0 0 0 0 4 0 0 0 0 0 0 0 7 0 0 0 0 0 0 0 0 0 0 0 0 0 0 0 0 0 0 0 0 0 0 0 0 0 0 0 0 0 0 0 0 0 0 0 0 0 0 0 0 0 0 0 0 0 0 0 0 0 0 0 -4 0 0 0 0 0 0 0 0 0 0 0 0 0 0 0 0 0 0 0 0 0 0 0 0 0 0 0 0 0 0 0 0 0 0 0 0 0 0 0 0 0 0 0 0 0 0 0 0 0 0 0 0 -7 0 0 0 0 0 0 0 0 0 0 0 0 0 0 0 0 0 0 0 0 0 0 0 0 0 0 0 0 
0 0 0 0 0 0 0 0 0 0 0 0 0 0 0 0 0 0 0 0 0 0 0 0 0 0 0 0 0 0 0 0 0 0 0 0 0 0 0 0 0 0 0 0 0 0 0 0 0 0 0 0 0 0 0 0 0 0 0 0 0 0 0 0 0 0 0 0 0 0 0 0 0 0 0 0 0 0 0 0 0 0 0 0 0 0 0 0 0 0 0 0 0 0 0 0 0 0 0 0 0 0 0 0 0 0 0 0 0 0 0 0 0 0 0 0 0 0 0 0 0 0 0 0 0 0 0 0 0 0 0 0 0 0 0 0 0 0 0 0 0 0 0 0 0 0 0 0 0 0 0 0 0 0 0 0 0 0 0 0 0 0 0 0 0 0 0 0 0 0 0 0 0 0 0 0 0 0 0 0 0 0 0 0 0 0 0 0 0 0 0 0 0 0 0 0 0 0 0 0 0 0 0 0 0 0 0 0 0 0 0 0 0 0 0 0 0 0 0 0 0 0 0 0 0 0 0 0 0 0 0 0 0 0 0 0 0 0 0 0 0 0 0 0 0 0 0 0 0 0 0 0 0 0 0 0 0 0 0 0 0 0 0 0 0 0 0 0 0 0 0 0 0 0 0 0 0 0 0 0 0 0 0 0 0 0 0 0 0 0 0 0 0 0 0 0 0 0 0 0 0 0 0 0 0 0 0 0 0 0 0 0 0 0 0 0 0 0 0 0 0 0 0 0 0 0 0 0 0 0 0 0 0 0 0 0 0 0 0 0 0 0 0 0 0 0 0 0 0 0 0 0 0 0 0 0 0 0 0 0 0 0 0 0 0 0 0 0 0 0 0 0 0 0 0 0 0 0 0 0 0 0 0 0 0 0 0 0 0 0 0 0 0 0 0 0 0 0 0 0 0 0 0 0 0 0 0 0 0 0 0 0 0 0 0 0 0 0 0 0 0 0 0 0 0 0 0 0 0 0 0 0 0 0 0 0 0 0 0 0 0 0 0 0 0 0 0 0 0 0 0 0 0 0 0 0 0 0 0 0 0 0 0 0 0 0 0 0 0 0 0 0 0 0 0 0 0 0 0 0 0 0 0 0 0 0 0 0 0 0 0 0 0 0 0 0 0 0 0 0 0 0 0 0 0 0 0 0 0 0 0 0 0 0 0 0 0 0 0 0 0 0 0 0 0 0 0 0 0 0 0 0 0 0 0 0 0 0 0 0 0 0 0 0 0 0 0 0 0 0 0 0 0 0 0 0 0 0 0 0 0 0 0 0 0 0 0 0 0 0 0 0 0 0 0 0 0 0 0 0 0 0 0 0 0 0 0 0 0 0 0 0 0 0 0 0 0 0 0 0 0 0 0 0 0 0 0 0 0 0 0 0 0 0 0 0 0 0 0 0 0 0 0 0 0 0 0 0 0 0 0 0 0 0 0 0 0 0 0 0 0 0 0 0 0 0 0 0 0 0 0 0 0 0 0 0 0 0 0 0 0 0 0 0 0 0 0 0 0 0 0 0 0 0 0 0 0 0 0 0 0 0 0 0 0 0 0 0 0 0 0 0 0 
0 -4 0 0 0 0 0 0 0 0 0 0 0 0 0 0 -4 0 0 -4 0 0 0 0 0 0 0 0 0 0 0 0 0 0 0 0 0 0 0 0 0 0 0 0 0 0 0 0 0 0 0 0 0 0 0 0 0 0 0 0 0 0 0 0 0 0 0 0 0 0 0 0 0 0 0 0 0 0 0 -4 0 0 0 0 0 0 0 0 0 0 0 0 0 0 0 0 0 0 0 0 0 0 0 0 0 0 0 0 0 0 0 0 0 0 0 0 0 -4 0 0 0 0 0 0 0 0 0 0 0 0 0 0 0 0 0 0 0 0 0 0 0 0 0 0 0 0 0 0 0 0 0 0 0 0 0 0 0 0 0 0 0 0 0 0 0 0 0 0 0 0 0 0 0 0 0 0 0 0 0 0 0 0 0 0 0 0 0 0 0 0 0 0 0 0 0 0 0 0 0 0 0 0 0 0 0 0 0 0 0 0 0 0 0 0 0 0 0 0 0 0 0 0 0 0 0 0 0 0 0 0 0 0 0 0 0 0 0 0 0 0 0 0 0 0 0 0 0 0 0 0 0 0 0 0 0 0 0 0 0 0 0 0 0 0 0 0 0 0 0 0 0 0 0 0 0 0 0 0 0 0 0 0 0 0 0 0 0 0 0 0 0 0 0 0 0 0 0 0 0 0 0 0 0 0 0 0 0 0 0 0 0 0 0 0 0 0 0 0 0 0 0 0 0 0 0 0 0 0 0 0 0 0 0 0 0 0 0 0 0 0 0 0 0 0 0 0 0 0 0 0 0 0 0 0 0 0 0 0 0 0 0 0 0 -4 0 0 0 0 0 0 0 0 0 0 0 0 0 0 0 0 0 0 0 0 0 0 0 0 0 0 0 0 0 0 0 0 0 0 0 0 0 0 0 0 0 0 0 0 0 0 0 0 0 0 0 0 0 0 0 0 0 0 0 0 0 0 0 0 0 0 0 0 0 0 0 0 0 0 0 0 0 0 0 0 0 0 0 0 0 0 0 0 0 0 0 0 0 0 0 0 0 0 0 0 0 0 0 0 0 0 0 0 0 0 0 0 0 0 0 0 0 0 0 0 0 0 0 0 0 0 0 0 0 0 0 0 0 0 0 0 0 0 0 0 0 0 0 0 0 0 0 0 0 0 0 0 0 0 0 0 0 0 0 0 0 0 0 0 0 0 0 0 0 0 0 0 0 0 0 0 0 0 0 0 0 0 0 0 0 0 0 0 0 0 0 0 0 0 0 0 0 0 0 0 0 0 0 0 0 0 0 0 0 0 0 0 0 0 0 0 0 0 0 0 0 0 0 0 0 0 0 0 0 0 0 0 0 0 0 0 0 0 0 0 0 0 0 0 0 0 0 4 0 0 0 0 0 0 0 0 0 0 0 0 0 0 0 0 0 0 0 0 0 0 0 0 0 0 0 0 0 0 0 0 0 0 0 0 0 0 0 0 0 0 0 0 0 0 0 0 0 0 0 0 0 0 0 0 0 0 0 0 0 0 0 0 0 0 0 0 0 0 0 0 0 0 0 0 0 0 0 0 0 
-58 -81 -16 -2 0 -29 0 -26 -2 0 0 0 0 0 -3 0 0 0 0 0 0 7 0 0 0 0 0 0 0 12 6 0 0 0 0 0 0 0 2 0 -3 -10 0 0 -7 0 7 0 -2 0 0 0 0 0 0 0 0 0 0 0 0 1 0 0 2 0 0 0 0 0 0 0 0 0 0 0 0 0 -7 0 0 6 0 0 1 -68 0 0 0 0 0 0 0 0 0 0 0 0 0 0 0 0 0 1 0 6 0 0 0 0 0 0 0 0 0 0 0 0 0 1 0 0 0 0 0 0 0 -21 10 0 -6 0 0 0 0 0 0 0 0 0 6 0 0 -5 0 0 0 0 0 0 0 0 0 0 0 0 0 0 0 -6 0 0 16 0 0 0 0 0 0 0 0 0 0 0 0 0 0 0 0 0 0 0 0 0 0 0 0 0 0 -9 0 0 0 0 0 0 0 0 0 0 -21 0 0 0 0 0 0 0 0 0 0 0 0 0 0 0 0 0 0 -68 0 0 0 0 0 0 0 0 0 -9 0 0 0 0 0 0 0 0 0 0 0 0 0 2 0 2 0 0 0 0 0 2 0 0 0 0 0 2 0 0 0 0 0 0 0 0 0 0 0 0 0 0 0 0 0 0 0 0 0 0 0 0 0 0 0 0 0 0 0 0 0 0 0 0 0 0 0 0 0 0 0 0 0 0 2 0 0 0 0 0 0 0 0 -10 0 0 2 0 0 0 0 0 0 -1 0 0 0 0 0 0 0 0 0 0 0 0 0 0 0 0 7 0 0 0 0 0 0 0 -68 0 -6 0 0 0 0 0 0 0 0 0 0 0 0 0 0 0 0 0 0 0 0 0 9 0 0 0 0 0 0 0 0 0 0 0 0 0 0 9 0 0 0 0 0 0 0 0 0 0 0 0 0 0 0 0 0 0 0 9 0 0 0 0 0 0 9 0 0 0 0 0 0 0 0 0 0 0 0 0 0 0 9 0 0 0 0 -9 0 0 0 0 0 0 0 0 0 0 0 0 0 0 0 0 0 0 0 0 0 0 0 0 0 0 0 1 0 0 0 0 0 0 0 0 0 0 0 0 2 0 0 0 0 0 0 0 0 0 0 0 0 0 0 0 2 -10 0 0 0 0 0 0 0 -1 0 0 0 0 0 0 -2 0 0 0 0 0 0 0 0 -26 0 0 0 0 0 0 0 -52 0 0 0 0 0 0 0 0 0 0 0 0 0 0 0 0 0 -7 -39 -16 0 0 0 0 0 0 6 0 -31 15 0 0 0 0 0 0 0 0 0 0 0 0 0 0 0 0 0 0 0 0 0 0 0 0 0 0 0 -9 0 0 0 0 0 0 0 0 0 0 0 0 0 0 0 0 0 0 0 -10 0 6 0 0 0 0 0 0 0 0 0 0 0 0 0 0 0 0 -9 0 0 0 0 0 0 2 -9 7 2 0 0 0 0 0 0 0 0 -9 0 9 0 0 0 0 0 0 0 0 0 -1 -1 1 0 0 -2 0 0 0 0 10 0 0 0 1 0 0 0 2 26 0 0 0 0 0 0 0 0 0 0 0 0 0 0 0 0 0 0 0 0 
-81 -81 -16 -19 -6 -65 0 -26 -2 -27 0 -1 -12 -2 -3 -15 -10 0 0 -1 0 14 -1 -9 -1 -4 6 -23 -30 -16 0 0 -1 0 0 -3 0 -4 -40 8 0 0 0 0 -4 1 0 0 -2 0 0 -10 0 8 -20 6 0 0 0 0 0 0 4 0 9 -3 0 0 0 -6 0 0 -5 0 0 0 0 0 -4 0 0 0 0 -9 -5 0 -5 0 6 0 0 -15 0 0 0 0 -2 0 -6 0 0 0 0 -6 0 -39 0 0 0 0 3 0 4 0 0 0 0 0 0 -1 0 0 0 0 2 0 0 17 0 0 -2 0 0 -59 -1 0 0 -4 0 2 0 0 0 3 0 0 0 4 0 0 0 0 0 0 0 -34 0 0 -4 0 0 0 0 0 0 3 0 0 0 -64 0 0 -8 0 0 0 0 0 0 0 0 4 0 0 0 0 0 0 0 0 0 -7 0 0 0 6 0 0 0 0 0 0 0 0 -10 0 0 -4 0 0 -3 6 0 0 0 0 -1 0 11 0 0 0 0 0 0 0 0 0 0 0 0 0 -2 0 0 0 0 0 0 0 0 0 0 9 0 2 28 0 0 0 0 0 0 0 0 0 0 2 0 0 0 0 0 0 0 0 0 3 0 -9 1 0 0 -19 0 0 0 0 0 0 0 17 0 0 0 0 0 0 1 -3 0 0 -5 0 5 0 0 0 -5 0 0 0 0 0 0 0 -5 0 0 0 0 0 6 0 0 0 2 0 -4 0 -6 0 0 -1 0 -5 0 0 -3 0 0 0 0 0 0 0 0 0 -28 0 9 0 0 0 0 0 0 0 0 0 -25 0 0 0 0 -4 0 0 0 0 -3 0 0 0 0 -6 0 -25 0 0 0 0 0 0 0 0 0 0 0 0 0 0 0 0 0 0 0 0 -19 0 0 0 0 34 0 0 0 0 0 -9 0 0 0 -11 0 0 0 26 0 0 0 6 0 0 0 0 0 0 0 0 0 0 0 0 0 0 0 0 0 8 0 0 -1 0 0 -26 0 0 0 0 0 0 0 -2 0 0 0 0 5 -1 -4 0 0 0 0 0 0 0 0 0 0 0 0 4 0 0 0 0 0 0 0 0 0 0 0 0 2 1 0 0 0 0 0 0 0 0 0 0 0 0 0 0 2 0 0 0 0 8 -1 0 0 -1 0 0 0 0 0 0 -2 0 0 0 0 0 0 0 0 -26 0 0 0 0 -10 0 0 0 0 0 0 0 0 0 0 0 0 0 4 0 0 0 0 0 0 0 -35 -16 0 -6 0 0 -4 0 0 0 -26 26 5 0 0 -9 7 0 0 0 0 0 4 1 -15 0 3 0 4 0 0 0 8 -3 0 0 -5 0 0 -26 0 7 -2 0 -1 0 0 5 -6 0 0 0 6 0 28 2 -2 0 0 0 0 0 2 2 0 3 0 0 -13 38 0 0 0 0 0 0 0 0 0 19 -34 0 -39 -17 0 0 2 9 0 5 -5 0 -6 0 0 0 -8 0 1 26 0 0 0 2 1 4 0 0 0 -4 -4 4 0 0 -2 0 0 0 0 0 -8 1 0 1 0 0 0 2 26 0 0 10 0 0 0 -4 0 0 0 0 0 0 0 0 0 0 0 0 0 
-81 -81 -16 -38 -6 -32 -2 -26 0 -41 0 -1 -35 -5 -3 -8 4 -2 0 -2 0 7 -17 -7 1 -4 6 -37 -16 -22 0 -4 1 0 0 -7 -5 -4 -15 0 3 -14 0 0 0 1 17 0 0 1 0 -18 0 11 -6 -12 -2 0 -37 5 0 -1 -51 2 0 0 0 -2 8 -6 0 -19 -3 0 0 0 0 0 0 -2 0 0 0 0 -10 0 0 0 0 0 0 -8 0 -20 0 0 -4 0 3 -7 0 -2 0 0 0 0 0 0 0 0 0 0 0 0 0 -10 0 0 54 -8 0 0 0 0 39 7 0 5 -10 0 -6 0 0 -5 -3 0 0 -12 0 0 0 0 0 3 13 0 0 4 3 0 0 -6 0 0 0 -16 0 0 -7 -4 -1 0 7 0 0 0 0 0 0 0 0 -1 6 0 0 2 0 0 0 0 0 0 0 -2 0 0 -6 0 0 0 0 -2 -1 0 0 0 0 0 0 0 -7 0 0 1 10 0 0 1 0 0 1 0 0 0 0 0 0 0 5 0 0 0 0 0 0 0 -1 0 0 0 0 0 0 0 0 -2 0 0 0 0 0 0 -43 0 0 0 17 0 0 -13 5 -5 0 19 0 0 0 0 0 0 0 0 27 0 2 0 0 4 0 0 0 0 0 -19 -76 -10 -7 0 8 0 0 20 0 0 0 0 0 0 7 1 12 0 1 0 5 0 19 0 1 0 0 0 0 0 0 0 -5 0 0 0 0 -1 -3 0 0 0 0 5 0 0 -6 0 0 0 0 -5 0 -13 -7 -14 0 0 0 0 0 0 0 0 -10 0 14 0 0 0 0 0 0 0 0 0 -3 0 0 0 0 0 0 0 0 0 0 0 -5 -4 0 -60 0 -6 0 0 -1 0 0 0 8 0 0 0 2 0 3 0 0 0 1 0 0 0 -20 0 0 16 0 16 0 0 0 0 0 0 0 0 0 -14 0 0 0 0 0 0 2 60 0 0 0 0 0 0 0 0 0 27 -17 0 0 0 0 0 0 -8 0 0 1 0 0 0 0 0 -14 0 0 0 -10 -12 0 0 0 0 0 0 0 0 0 0 0 0 0 7 0 0 0 0 0 4 0 0 -19 0 0 0 0 0 0 0 0 0 0 -1 0 0 0 0 0 0 0 -19 0 0 0 0 5 0 -1 -13 0 0 0 5 1 0 0 0 0 0 0 0 -9 0 1 0 0 0 0 0 0 0 0 -16 0 0 0 0 10 0 0 0 0 0 0 0 0 0 1 0 0 0 0 0 0 0 0 0 0 0 0 -3 20 -6 -7 0 -2 -3 4 0 -7 0 -5 0 0 11 -41 1 0 0 0 -1 -1 13 -1 0 -1 13 5 0 0 0 3 0 -2 0 0 -35 13 0 7 0 -2 0 0 -19 0 5 3 -1 0 -5 6 13 10 0 0 0 0 0 0 0 0 0 0 0 5 4 9 -3 0 1 -8 -2 -3 0 0 -1 0 20 -16 0 0 0 0 0 0 14 0 5 -5 -2 -60 0 -8 0 8 0 -1 0 -5 0 10 12 0 0 0 -12 0 -4 -3 3 19 0 0 0 0 19 -5 4 -5 -1 0 0 9 0 0 -1 16 0 0 -10 0 -1 0 0 0 0 0 0 0 0 0 0 0 0 0 0 0 
#OUTPUT END
Model has been successfully processed
